peakDumbCharging = 22200; 
Machine = anon_enum(16); 
machineSpeed = [3700,3700,3700,3700,3700,3700,3700,3700,3700,3700,3700,3700,3700,3700,3700,3700]; 
machineLoad = [3700,3700,3700,3700,3700,3700,3700,3700,3700,3700,3700,3700,3700,3700,3700,3700]; 
Car = anon_enum(35); 
demandCar = [1960,3280,15160,18520,18120,6960,3400,17640,3000,1040,13960,3680,12040,3600,32201,4360,15040,10640,5760,13560,8080,6040,3240,3240,3280,240,3640,13760,25080,3800,11160,5400,5560,1600,14800]; 
arrivalCar = [70,68,67,66,64,59,58,58,56,56,56,54,53,51,50,50,49,49,48,46,45,45,45,42,42,40,40,39,36,35,34,34,34,34,24]; 
departureCar = [72,70,74,72,72,63,61,64,61,58,63,57,57,54,62,53,67,60,52,51,49,55,48,45,45,41,43,49,46,37,39,39,39,41,30]; 
